508712
508712
508712
507994
506987
481186
481186
481186
481186
481186
462927
462927
457799
457799
457799
457799
457799
444925
442928
442928
434922
434922
434922
428961
428961
428961
428961
428961
428961
428961
428961
418846
418846
418846
418487
418487
418487
418487
416567
416567
412844
412844
412844
412844
412844
409795
409795
409795
409795
392033
392033
392033
392033
392033
392033
391807
391807
391807
391807
391807
391807
391807
388670
386244
386244
386244
386244
386244
386244
380103
372874
372874
370658
370658
370658
369432
369432
366663
360087
360087
360087
356297
356297
353585
353585
353585
353585
353585
352183
352183
347265
347265
344159
343820
342694
342694
341308
338122
338122
338122
